(declare-const x0 Real)
(assert (<= 0.909090 x0))
(declare-const x1 Real)
(assert (<= 0.909090 x1))
(declare-const x2 Real)
(assert (<= 0.909090 x2))
(declare-const x3 Real)
(declare-const x4 Real)
(declare-const x5 Real)
(assert (<= 0.0 x5))
(declare-const x6 Real)
(assert (<= 0.0 x6))
(declare-const x7 Real)
(declare-const x8 Real)

(assert (= (+ (* (- 1.0) x5) (+ (* 0.477294 (^ x0 2.0)) (- (* (* x0 x1) (+ (* 0.934617 (sin x3)) (* 0.238647 (cos x3))))) (- (* (* x0 x2) (+ (* 0.934617 (sin x4)) (* 0.238647 (cos x4))))))) (- 0.400000)))
(assert (= (+ (* (- 1.0) x6) (+ (* 0.477294 (^ x1 2.0)) (* (* x0 x1) (+ (* 0.934617 (sin x3)) (* (- 0.238647) (cos x3)))) (* (* x1 x2) (+ (* 0.934617 (sin (- x3 x4))) (* (- 0.238647) (cos (- x3 x4))))))) (- 0.400000)))
(assert (= (+ (* 0.477294 (^ x2 2.0)) (* (* x0 x2) (+ (* 0.934617 (sin x4)) (* (- 0.238647) (cos x4)))) (- (* (* x1 x2) (+ (* 0.934617 (sin (- x3 x4))) (* 0.238647 (cos (- x3 x4))))))) (- 0.800000)))
(assert (= (+ (* (- 1.0) x7) (+ (* 1.869235 (^ x0 2.0)) (* (* x0 x1) (+ (* 0.238647 (sin x3)) (* (- 0.934617) (cos x3)))) (* (* x0 x2) (+ (* 0.238647 (sin x4)) (* (- 0.934617) (cos x4)))))) (- 0.200000)))
(assert (= (+ (* (- 1.0) x8) (+ (* 1.869235 (^ x1 2.0)) (- (* (* x0 x1) (+ (* 0.238647 (sin x3)) (* 0.934617 (cos x3))))) (- (* (* x1 x2) (+ (* 0.238647 (sin (- x3 x4))) (* 0.934617 (cos (- x3 x4)))))))) (- 0.200000)))
(assert (= (+ (* 1.869235 (^ x2 2.0)) (- (* (* x0 x2) (+ (* 0.238647 (sin x4)) (* 0.934617 (cos x4))))) (* (* x1 x2) (+ (* 0.238647 (sin (- x3 x4))) (* (- 0.934617) (cos (- x3 x4)))))) 0.337000))

(minimize
	(+ (* 3000.0 x5) (* 2000.0 x6) (+ (* 1000.0 (^ x5 3.0)) (* 666.667000 (^ x6 3.0))))
)
(check-sat)
(get-objectives)
(exit)

